set CITIES :=
1 2 3 4 5 6 7 8 9 10 11 12 13 14 15 16 17 18 19 20 21
;

set REQ :=
1 2 3 5 8 14
;

set EDGES :=
1 5
1 7
1 19
2 3
2 10
2 14
3 5
3 13
3 14
4 10
5 13
5 15
5 17
6 17
7 11
7 12
7 14
7 20
8 15
8 16
9 18
9 20
10 16
10 18
11 17
13 15
13 19
14 19
15 17
16 20
17 19
18 20
1 2
3 4
4 5
5 6
6 7
7 8
8 9
9 10
10 11
11 12
12 13
13 14
14 15
15 16
16 17
17 18
18 19
19 20
20 21
;

param COST_int :=
1 5 10
1 7 11
1 19 4
2 3 12
2 10 10
2 14 12
3 5 6
3 13 7
3 14 11
4 10 7
5 13 9
5 15 7
5 17 8
6 17 6
7 11 4
7 12 3
7 14 5
7 20 10
8 15 11
8 16 8
9 18 3
9 20 6
10 16 7
10 18 11
11 17 7
13 15 10
13 19 6
14 19 3
15 17 11
16 20 7
17 19 3
18 20 7
1 2 6
3 4 12
4 5 12
5 6 11
6 7 10
7 8 7
8 9 7
9 10 8
10 11 8
11 12 4
12 13 4
13 14 10
14 15 6
15 16 12
16 17 10
17 18 7
18 19 7
19 20 10
20 21 10
;

